750
1000 1000
1 700 182
2 700 932
3 700 148
4 699 327
5 698 161
6 698 58
7 698 328
8 698 705
9 698 994
10 695 622
11 695 842
12 695 546
13 693 496
14 693 607
15 692 895
16 692 475
17 689 30
18 689 74
19 688 886
20 687 857
21 687 245
22 687 347
23 687 88
24 686 63
25 686 619
26 685 789
27 685 450
28 685 677
29 684 220
30 684 926
31 684 113
32 684 246
33 682 974
34 682 908
35 681 497
36 680 796
37 677 668
38 677 14
39 677 139
40 674 524
41 673 597
42 673 189
43 673 528
44 673 443
45 672 944
46 671 618
47 670 109
48 670 240
49 670 267
50 670 768
51 669 432
52 668 942
53 667 98
54 666 509
55 665 728
56 664 451
57 664 865
58 663 320
59 660 14
60 659 843
61 659 635
62 657 405
63 656 948
64 655 153
65 654 297
66 654 552
67 652 37
68 651 939
69 650 29
70 650 773
71 649 868
72 648 583
73 648 432
74 647 495
75 647 251
76 646 297
77 644 26
78 644 268
79 643 70
80 642 138
81 642 127
82 640 704
83 639 428
84 638 473
85 638 211
86 637 778
87 635 23
88 635 333
89 633 196
90 633 552
91 632 838
92 632 813
93 632 999
94 632 299
95 631 923
96 631 701
97 631 310
98 630 555
99 630 150
100 630 410
101 629 663
102 629 25
103 629 931
104 628 434
105 627 266
106 624 577
107 624 484
108 624 858
109 622 873
110 622 940
111 621 393
112 620 212
113 619 504
114 619 946
115 618 260
116 618 440
117 616 728
118 615 588
119 615 267
120 614 286
121 613 439
122 613 239
123 612 425
124 612 284
125 612 517
126 611 241
127 611 340
128 610 469
129 608 592
130 608 330
131 606 903
132 606 106
133 605 45
134 604 275
135 603 964
136 602 362
137 602 521
138 602 860
139 601 314
140 601 313
141 601 175
142 601 9
143 601 722
144 600 967
145 600 233
146 599 642
147 598 313
148 596 419
149 596 349
150 596 764
151 596 836
152 593 358
153 593 35
154 592 317
155 591 905
156 591 302
157 590 989
158 590 169
159 589 994
160 589 811
161 588 887
162 587 106
163 587 953
164 586 808
165 586 360
166 584 480
167 584 89
168 583 382
169 583 938
170 580 162
171 579 412
172 579 908
173 578 275
174 578 225
175 577 185
176 575 22
177 574 714
178 573 438
179 573 593
180 573 706
181 573 976
182 571 625
183 571 511
184 571 545
185 569 870
186 569 104
187 566 781
188 565 191
189 565 818
190 559 44
191 559 338
192 558 45
193 558 972
194 558 466
195 558 91
196 555 541
197 553 586
198 552 934
199 551 973
200 551 509
201 550 801
202 550 598
203 548 52
204 548 391
205 547 764
206 547 595
207 547 918
208 545 192
209 545 501
210 542 524
211 541 61
212 538 470
213 538 206
214 537 946
215 537 281
216 536 989
217 535 888
218 534 720
219 534 172
220 533 280
221 531 276
222 531 826
223 531 489
224 531 442
225 530 12
226 530 559
227 530 972
228 530 141
229 530 676
230 529 393
231 529 717
232 529 971
233 528 351
234 527 459
235 527 269
236 526 655
237 523 752
238 523 393
239 522 405
240 522 338
241 522 831
242 521 104
243 520 250
244 519 885
245 519 338
246 518 416
247 518 229
248 518 146
249 517 767
250 516 782
251 516 759
252 513 538
253 512 39
254 511 847
255 510 789
256 508 511
257 507 784
258 507 250
259 507 628
260 506 450
261 505 926
262 504 626
263 503 901
264 503 745
265 503 136
266 501 791
267 501 632
268 501 860
269 498 176
270 497 579
271 496 54
272 496 962
273 495 727
274 495 870
275 495 400
276 494 333
277 493 49
278 492 719
279 490 310
280 489 702
281 489 658
282 487 273
283 486 617
284 486 635
285 484 398
286 484 656
287 483 324
288 481 542
289 480 701
290 480 354
291 479 72
292 479 826
293 478 54
294 478 448
295 478 636
296 477 755
297 476 277
298 475 899
299 475 742
300 474 973
301 474 172
302 474 343
303 471 624
304 471 132
305 471 808
306 471 491
307 470 253
308 470 608
309 465 611
310 465 654
311 464 813
312 462 284
313 461 545
314 461 322
315 461 82
316 460 868
317 460 598
318 459 73
319 459 724
320 458 906
321 457 727
322 455 522
323 453 931
324 453 486
325 452 548
326 452 809
327 450 371
328 450 304
329 450 187
330 450 85
331 449 435
332 449 971
333 448 832
334 448 207
335 447 301
336 443 58
337 442 484
338 439 213
339 438 446
340 438 661
341 438 846
342 435 528
343 434 717
344 434 269
345 433 806
346 433 990
347 432 648
348 432 24
349 431 352
350 431 419
351 431 107
352 430 403
353 429 75
354 429 185
355 428 23
356 428 605
357 424 967
358 424 613
359 424 265
360 422 903
361 421 982
362 421 81
363 421 287
364 419 341
365 419 699
366 418 976
367 418 723
368 418 382
369 417 698
370 417 172
371 416 707
372 415 808
373 414 320
374 414 258
375 414 411
376 413 905
377 412 740
378 412 276
379 411 422
380 410 469
381 410 138
382 410 373
383 410 447
384 409 581
385 409 393
386 408 476
387 408 215
388 407 661
389 407 286
390 405 244
391 405 836
392 404 729
393 404 461
394 403 532
395 403 576
396 403 347
397 403 634
398 402 165
399 402 557
400 402 435
401 401 45
402 399 601
403 398 841
404 397 802
405 395 315
406 394 217
407 394 215
408 394 945
409 393 7
410 393 47
411 390 21
412 389 820
413 387 228
414 384 826
415 384 371
416 384 199
417 382 234
418 382 943
419 382 543
420 382 969
421 380 165
422 380 587
423 380 24
424 379 270
425 375 451
426 374 644
427 374 730
428 372 162
429 372 473
430 371 327
431 370 197
432 367 904
433 365 608
434 365 854
435 365 682
436 364 786
437 363 477
438 361 376
439 361 979
440 360 439
441 360 512
442 359 380
443 358 434
444 357 234
445 356 789
446 355 637
447 355 243
448 354 119
449 354 493
450 353 265
451 353 665
452 352 873
453 351 340
454 349 101
455 349 46
456 348 902
457 347 770
458 345 82
459 344 60
460 343 799
461 343 981
462 343 260
463 342 658
464 342 628
465 342 321
466 341 437
467 341 217
468 341 704
469 339 690
470 339 598
471 336 355
472 335 202
473 335 262
474 334 963
475 333 527
476 333 570
477 333 987
478 332 557
479 331 491
480 330 747
481 329 407
482 329 949
483 329 756
484 328 824
485 328 995
486 327 899
487 326 197
488 325 65
489 323 144
490 323 113
491 322 227
492 322 368
493 322 705
494 321 964
495 321 735
496 320 366
497 320 71
498 320 272
499 320 873
500 319 475
501 319 382
502 316 85
503 316 438
504 316 348
505 316 302
506 315 931
507 315 556
508 315 199
509 314 231
510 314 980
511 313 632
512 313 54
513 313 40
514 313 142
515 312 545
516 309 963
517 309 591
518 309 235
519 305 329
520 305 824
521 304 61
522 304 490
523 303 427
524 303 697
525 302 613
526 302 163
527 300 374
528 298 437
529 298 443
530 297 271
531 297 439
532 296 788
533 296 893
534 295 86
535 295 384
536 294 24
537 293 9
538 293 28
539 291 936
540 289 360
541 289 199
542 288 832
543 288 107
544 287 525
545 287 182
546 287 969
547 283 133
548 283 413
549 283 837
550 280 412
551 278 252
552 278 335
553 276 736
554 274 732
555 274 357
556 272 869
557 272 114
558 271 91
559 271 529
560 269 927
561 267 624
562 267 635
563 267 521
564 267 412
565 266 825
566 266 829
567 266 569
568 266 69
569 264 980
570 262 356
571 261 448
572 261 373
573 261 638
574 260 693
575 259 106
576 258 136
577 257 787
578 257 971
579 257 881
580 257 611
581 256 63
582 254 98
583 253 807
584 253 853
585 251 970
586 249 511
587 249 881
588 245 442
589 245 971
590 244 376
591 243 297
592 241 958
593 241 753
594 241 239
595 239 550
596 239 596
597 237 291
598 236 813
599 236 630
600 236 284
601 235 369
602 235 527
603 235 799
604 233 83
605 232 772
606 232 327
607 231 426
608 230 706
609 230 38
610 228 726
611 227 528
612 227 988
613 224 520
614 223 495
615 223 329
616 223 507
617 222 852
618 221 671
619 218 86
620 217 982
621 215 809
622 212 443
623 212 872
624 211 412
625 211 837
626 210 120
627 209 872
628 208 870
629 207 389
630 206 155
631 205 79
632 205 553
633 205 368
634 205 62
635 204 96
636 204 692
637 203 25
638 201 180
639 200 841
640 198 627
641 198 95
642 197 392
643 196 860
644 196 345
645 196 321
646 195 101
647 191 206
648 191 165
649 191 4
650 190 261
651 190 535
652 190 621
653 190 169
654 188 156
655 186 79
656 186 453
657 183 480
658 183 617
659 182 400
660 182 169
661 181 374
662 180 17
663 179 0
664 177 443
665 177 871
666 176 5
667 174 5
668 173 447
669 173 628
670 166 763
671 165 910
672 165 825
673 164 721
674 164 705
675 163 658
676 163 424
677 163 528
678 162 796
679 161 203
680 160 704
681 159 442
682 158 874
683 158 743
684 157 843
685 152 856
686 152 592
687 152 886
688 148 593
689 148 130
690 146 778
691 146 231
692 146 787
693 145 551
694 145 110
695 144 822
696 144 657
697 144 33
698 143 323
699 142 700
700 142 480
701 141 939
702 140 131
703 139 966
704 139 36
705 139 40
706 137 499
707 136 171
708 135 491
709 135 395
710 133 149
711 133 69
712 130 254
713 130 948
714 128 63
715 128 421
716 128 571
717 128 563
718 127 711
719 127 305
720 126 353
721 125 87
722 125 775
723 124 935
724 123 215
725 121 458
726 121 488
727 121 458
728 119 767
729 118 438
730 118 411
731 118 133
732 118 191
733 117 296
734 117 166
735 115 404
736 115 806
737 114 388
738 114 801
739 113 882
740 113 255
741 111 255
742 110 418
743 108 914
744 108 19
745 108 305
746 108 332
747 107 602
748 107 328
749 105 141
750 103 868
